% From JaCoP's nonogramRepository/data088.nin
 rows = 25;
 row_rule_len = 5;
 row_rules = array2d(1..rows, 1..row_rule_len, 
[
 0,0,0,0,4,
 0,0,0,1,1,
 0,0,0,0,6,
 0,0,0,3,9,
 0,0,3,1,1,
 0,3,1,1,1,
 0,4,1,1,1,
 0,3,1,1,1,
 0,4,2,1,1,
 0,4,2,1,1,
 0,4,2,1,1,
 0,0,4,2,5,
 0,0,0,4,9,
 0,0,0,4,14,
 0,0,0,4,14,
 0,0,6,2,8,
 0,0,0,3,17,
 0,0,4,4,8,
 0,0,0,3,15,
 0,0,0,3,4,
 0,0,0,3,16,
 2,1,2,2,2,
 0,5,4,4,1,
 0,1,2,2,2,
 0,0,0,0,16
]);

 cols = 25;
 col_rule_len = 5;
 col_rules = array2d(1..cols, 1..col_rule_len, 
[
 0,0,0,0,1,
 0,0,0,1,2,
 0,0,0,2,2,
 0,0,0,4,4,
 0,0,0,5,5,
 0,0,0,0,14,
 0,0,0,0,12,
 0,0,0,0,8,
 0,0,0,8,3,
 0,3,1,1,1,
 0,0,0,3,5,
 0,0,0,0,12,
 0,0,8,1,1,
 0,2,1,3,1,
 2,1,3,1,1,
 0,2,1,1,5,
 0,12,1,1,5,
 1,11,1,1,1,
 0,1,7,1,1,
 4,8,1,1,1,
 0,0,1,17,5,
 0,1,2,8,5,
 4,8,1,1,1,
 0,2,14,1,1,
 2,7,1,1,1
]);

